440
27 59 73 94 143 181 232 284 334 362 
59 82 94 148 181 251 311 334 353 373 
67 92 156 196 270 291 306 353 369 416 
117 141 208 249 278 295 317 340 355 393 
0 37 73 131 156 181 233 258 284 340 
23 141 181 232 249 295 317 355 385 415 
8 23 92 117 148 161 212 237 291 303 
0 8 37 67 109 126 148 224 244 263 
0 67 77 111 161 258 317 343 369 385 
41 67 74 126 148 183 208 237 249 263